200
[20,31,39,52,54,58,59,62,64,67,73,81,82,84,86,90,92,100,101,104,106,110,121,122,125,128,131,132,136,137,138,139,140,141,142,143,145,148,153,159]
[1,1,1,1,1,1,1,1,2,1,2,1,1,1,1,1,1,3,1,2,1,1,1,2,1,1,1,1,2,1,1,1,1,1,1,1,3,1,2,1]
